244 5
10 10 10 10 10 

0 0 0 0 0 0 5 2 14 26 38 50 
0 0 0 0 0 0 2 3 4 
8 2 0 0 0 0 2 6 5 
3 7 0 0 0 0 1 5 
2 8 0 0 0 0 2 8 7 
8 8 0 0 0 0 1 7 
7 9 0 0 0 0 2 10 9 
1 8 0 0 0 0 1 9 
6 8 0 0 0 0 3 12 11 216 
7 9 0 0 0 0 2 12 11 
4 6 0 0 0 0 1 13 
1 10 0 0 0 0 1 13 
0 0 0 0 0 0 1 62 
0 0 0 0 0 0 3 15 17 18 
10 0 0 0 0 3 2 24 16 
5 0 0 0 0 4 2 21 19 
3 0 0 0 0 8 3 24 23 21 
1 0 0 0 0 9 2 23 21 
10 0 0 0 0 10 1 20 
4 0 0 0 0 7 2 23 22 
6 0 0 0 0 7 1 22 
2 0 0 0 0 10 1 25 
6 0 0 0 0 10 2 25 69 
7 0 0 0 0 7 1 25 
0 0 0 0 0 0 1 62 
0 0 0 0 0 0 2 27 28 
6 0 5 0 0 0 3 31 30 29 
6 0 10 0 0 0 2 31 29 
7 0 10 0 0 0 2 36 32 
10 0 7 0 0 0 2 36 32 
5 0 10 0 0 0 2 36 33 
1 0 6 0 0 0 2 33 83 
3 0 10 0 0 0 2 35 34 
1 0 6 0 0 0 1 37 
7 0 7 0 0 0 1 37 
6 0 4 0 0 0 1 37 
0 0 0 0 0 0 1 62 
0 0 0 0 0 0 4 39 40 41 46 
5 0 0 3 0 0 2 44 43 
10 0 0 7 0 0 1 42 
10 0 0 6 0 0 1 42 
3 0 0 7 0 0 1 43 
10 0 0 6 0 0 2 48 45 
4 0 0 10 0 0 2 48 45 
9 0 0 10 0 0 1 47 
7 0 0 10 0 0 2 47 145 
4 0 0 8 0 0 1 49 
2 0 0 8 0 0 1 49 
0 0 0 0 0 0 1 62 
0 0 0 0 0 0 5 51 53 54 56 58 
1 2 0 0 0 0 1 52 
4 7 0 0 0 0 2 60 55 
7 5 0 0 0 0 2 60 57 
7 5 0 0 0 0 2 60 57 
9 9 0 0 0 0 1 57 
2 10 0 0 0 0 1 57 
7 8 0 0 0 0 1 59 
6 10 0 0 0 0 1 59 
6 10 0 0 0 0 1 61 
5 9 0 0 0 0 1 61 
0 0 0 0 0 0 1 62 
0 0 0 0 0 0 5 63 75 87 99 111 
0 0 0 0 0 0 3 64 65 67 
3 0 1 0 0 0 2 68 66 
4 0 7 0 0 0 2 68 66 
9 0 9 0 0 0 2 70 69 
10 0 10 0 0 0 2 70 69 
9 0 10 0 0 0 1 69 
8 0 6 0 0 0 2 72 71 
4 0 9 0 0 0 1 71 
2 0 10 0 0 0 1 73 
1 0 6 0 0 0 1 73 
8 0 7 0 0 0 1 74 
0 0 0 0 0 0 1 123 
0 0 0 0 0 0 4 76 83 84 85 
1 2 0 0 0 0 2 82 77 
1 10 0 0 0 0 1 78 
1 4 0 0 0 0 2 81 79 
8 10 0 0 0 0 1 80 
3 10 0 0 0 0 1 86 
5 5 0 0 0 0 1 86 
4 5 0 0 0 0 1 86 
4 10 0 0 0 0 1 86 
9 10 0 0 0 0 1 86 
2 9 0 0 0 0 1 86 
0 0 0 0 0 0 1 123 
0 0 0 0 0 0 4 88 91 96 97 
9 0 0 0 3 0 1 89 
8 0 0 0 6 0 2 95 90 
6 0 0 0 7 0 2 94 92 
5 0 0 0 7 0 2 94 93 
8 0 0 0 10 0 1 93 
3 0 0 0 10 0 1 98 
4 0 0 0 4 0 1 98 
3 0 0 0 10 0 1 98 
4 0 0 0 8 0 1 98 
2 0 0 0 10 0 1 98 
0 0 0 0 0 0 1 123 
0 0 0 0 0 0 2 100 101 
6 0 0 0 7 0 2 103 102 
10 0 0 0 2 0 2 104 103 
2 0 0 0 10 0 2 105 104 
10 0 0 0 3 0 2 106 105 
6 0 0 0 8 0 2 107 106 
1 0 0 0 8 0 2 109 107 
5 0 0 0 10 0 2 109 108 
9 0 0 0 8 0 1 108 
10 0 0 0 10 0 1 110 
3 0 0 0 9 0 1 110 
0 0 0 0 0 0 1 123 
0 0 0 0 0 0 3 112 120 121 
4 7 0 0 0 0 2 119 113 
6 6 0 0 0 0 1 114 
10 4 0 0 0 0 3 118 117 115 
6 7 0 0 0 0 1 116 
9 10 0 0 0 0 1 122 
1 8 0 0 0 0 1 122 
3 9 0 0 0 0 1 122 
5 6 0 0 0 0 1 122 
4 8 0 0 0 0 1 122 
9 10 0 0 0 0 1 122 
0 0 0 0 0 0 1 123 
0 0 0 0 0 0 5 124 136 148 160 172 
0 0 0 0 0 0 2 125 129 
4 0 0 3 0 0 2 128 126 
6 0 0 5 0 0 3 134 131 127 
4 0 0 10 0 0 2 133 130 
6 0 0 4 0 0 2 133 130 
1 0 0 7 0 0 2 134 132 
4 0 0 9 0 0 1 132 
10 0 0 9 0 0 1 133 
3 0 0 10 0 0 1 135 
7 0 0 8 0 0 1 135 
9 0 0 10 0 0 1 135 
0 0 0 0 0 0 1 184 
0 0 0 0 0 0 2 137 138 
2 5 0 0 0 0 2 143 139 
8 7 0 0 0 0 4 146 143 141 140 
8 3 0 0 0 0 3 146 141 140 
5 10 0 0 0 0 2 145 144 
4 10 0 0 0 0 1 142 
1 10 0 0 0 0 1 144 
7 6 0 0 0 0 1 145 
5 10 0 0 0 0 1 147 
10 5 0 0 0 0 1 147 
6 9 0 0 0 0 1 147 
0 0 0 0 0 0 1 184 
0 0 0 0 0 0 4 149 152 153 154 
1 0 0 0 5 0 2 158 150 
3 0 0 0 6 0 1 151 
6 0 0 0 7 0 2 157 155 
9 0 0 0 8 0 2 158 155 
8 0 0 0 10 0 2 158 157 
10 0 0 0 8 0 1 155 
6 0 0 0 8 0 1 156 
3 0 0 0 10 0 1 159 
2 0 0 0 5 0 1 159 
5 0 0 0 8 0 1 159 
0 0 0 0 0 0 1 184 
0 0 0 0 0 0 3 161 166 170 
7 0 0 1 0 0 2 164 162 
4 0 0 7 0 0 2 168 163 
4 0 0 9 0 0 2 169 165 
7 0 0 9 0 0 2 168 167 
5 0 0 7 0 0 1 167 
9 0 0 10 0 0 1 167 
9 0 0 9 0 0 1 171 
5 0 0 6 0 0 1 171 
1 0 0 9 0 0 1 171 
9 0 0 8 0 0 1 171 
0 0 0 0 0 0 1 184 
0 0 0 0 0 0 6 173 175 177 179 181 182 
4 5 0 0 0 0 1 174 
3 8 0 0 0 0 1 176 
7 6 0 0 0 0 1 176 
7 10 0 0 0 0 1 178 
1 10 0 0 0 0 1 178 
3 10 0 0 0 0 1 180 
9 6 0 0 0 0 1 180 
9 7 0 0 0 0 1 183 
2 7 0 0 0 0 1 183 
10 6 0 0 0 0 1 183 
0 0 0 0 0 0 1 184 
0 0 0 0 0 0 4 185 197 209 221 
0 0 0 0 0 0 2 186 189 
1 0 0 0 0 3 2 190 187 
8 0 0 0 0 7 2 191 188 
2 0 0 0 0 8 3 195 194 192 
8 0 0 0 0 6 3 195 194 192 
10 0 0 0 0 9 2 194 192 
3 0 0 0 0 7 2 194 193 
9 0 0 0 0 8 1 193 
7 0 0 0 0 10 1 196 
2 0 0 0 0 10 1 196 
8 0 0 0 0 7 1 196 
0 0 0 0 0 0 1 233 
0 0 0 0 0 0 3 198 201 203 
6 0 0 4 0 0 2 200 199 
1 0 0 5 0 0 2 205 202 
5 0 0 10 0 0 2 205 202 
6 0 0 8 0 0 3 207 205 204 
8 0 0 10 0 0 2 207 204 
1 0 0 9 0 0 2 205 204 
10 0 0 7 0 0 1 206 
2 0 0 8 0 0 1 206 
8 0 0 7 0 0 1 208 
7 0 0 7 0 0 1 208 
0 0 0 0 0 0 1 233 
0 0 0 0 0 0 1 210 
9 0 4 0 0 0 3 213 212 211 
6 0 7 0 0 0 2 215 214 
6 0 8 0 0 0 1 214 
9 0 9 0 0 0 1 214 
9 0 7 0 0 0 2 217 216 
8 0 5 0 0 0 1 216 
6 0 10 0 0 0 2 219 218 
3 0 7 0 0 0 2 219 218 
6 0 8 0 0 0 1 220 
5 0 10 0 0 0 1 220 
0 0 0 0 0 0 1 233 
0 0 0 0 0 0 1 222 
9 2 0 0 0 0 2 224 223 
7 10 0 0 0 0 2 226 225 
5 5 0 0 0 0 2 227 225 
3 10 0 0 0 0 2 231 228 
2 10 0 0 0 0 1 227 
5 7 0 0 0 0 3 231 230 229 
7 7 0 0 0 0 2 230 229 
5 9 0 0 0 0 1 232 
7 6 0 0 0 0 1 232 
4 9 0 0 0 0 1 232 
0 0 0 0 0 0 1 233 
0 0 0 0 0 0 2 234 236 
4 7 0 0 0 0 3 243 242 235 
10 5 0 0 0 0 3 241 240 237 
2 8 0 0 0 0 2 240 239 
8 10 0 0 0 0 1 238 
8 5 0 0 0 0 1 239 
2 10 0 0 0 0 1 244 
7 3 0 0 0 0 1 244 
10 9 0 0 0 0 1 244 
9 10 0 0 0 0 1 244 
4 8 0 0 0 0 1 244 
0 0 0 0 0 0 0 
